width = 29;

n_circuits = 24;

circuit_x = array1d(1..24, [3, 3, 3, 3, 3, 3, 3, 3, 3, 3, 3, 3, 4, 4, 4, 4, 4, 4,
    4, 4, 4, 5, 5, 5]);

circuit_y = array1d(1..24, [3, 4, 5, 6, 7, 8, 9, 10, 11, 15, 18, 20, 3, 4, 5, 6,
    7, 9, 15, 18, 20, 4, 8, 17]);

opt_height = 29;

max_y = 20;

